Version identifier: 22.1.1.0 | 2022-11-28 | 9160aff4d
CPXPARAM_TimeLimit                               3600
Tried aggregator 1 time.
MIP Presolve eliminated 193 rows and 144 columns.
Reduced MIP has 5707 rows, 2473 columns, and 17021 nonzeros.
Reduced MIP has 2473 binaries, 0 generals, 0 SOSs, and 0 indicators.
Presolve time = 0.01 sec. (12.82 ticks)
Found incumbent of value 4097846.000000 after 0.01 sec. (15.61 ticks)
Probing time = 0.00 sec. (3.54 ticks)
Tried aggregator 1 time.
Detecting symmetries...
Reduced MIP has 5707 rows, 2473 columns, and 17021 nonzeros.
Reduced MIP has 2473 binaries, 0 generals, 0 SOSs, and 0 indicators.
Presolve time = 0.01 sec. (14.21 ticks)
Probing time = 0.01 sec. (3.54 ticks)
Clique table members: 2357.
MIP emphasis: balance optimality and feasibility.
MIP search method: dynamic search.
Parallel mode: deterministic, using up to 8 threads.
Root relaxation solution time = 0.01 sec. (10.95 ticks)

        Nodes                                         Cuts/
   Node  Left     Objective  IInf  Best Integer    Best Bound    ItCnt     Gap

*     0+    0                      4097846.0000        0.0000           100.00%
*     0+    0                      2181176.0000        0.0000           100.00%
*     0+    0                      1482690.0000        0.0000           100.00%
*     0+    0                      1352977.0000        0.0000           100.00%
      0     0    93774.0000   100  1352977.0000    93774.0000      156   93.07%
*     0+    0                       930219.0000    93774.0000            89.92%
*     0+    0                       149371.0000    93774.0000            37.22%
      0     0   106217.5000   100   149371.0000     Cuts: 161      260   28.89%
      0     0   118214.5000    84   149371.0000     Cuts: 177      362   20.86%
*     0+    0                       139441.0000   118214.5000            15.22%
Detecting symmetries...

Repeating presolve.
Tried aggregator 1 time.
MIP Presolve eliminated 4956 rows and 1904 columns.
MIP Presolve modified 427 coefficients.
Reduced MIP has 751 rows, 569 columns, and 2536 nonzeros.
Reduced MIP has 569 binaries, 0 generals, 0 SOSs, and 0 indicators.
Presolve time = 0.00 sec. (4.76 ticks)
Probing time = 0.00 sec. (0.60 ticks)
Tried aggregator 1 time.
Detecting symmetries...
MIP Presolve eliminated 6 rows and 0 columns.
Reduced MIP has 745 rows, 569 columns, and 2524 nonzeros.
Reduced MIP has 569 binaries, 0 generals, 0 SOSs, and 0 indicators.
Presolve time = 0.00 sec. (2.66 ticks)
Represolve time = 0.01 sec. (12.41 ticks)
Probing time = 0.00 sec. (0.60 ticks)
Clique table members: 588.
MIP emphasis: balance optimality and feasibility.
MIP search method: dynamic search.
Parallel mode: deterministic, using up to 8 threads.
Root relaxation solution time = 0.01 sec. (7.69 ticks)

        Nodes                                         Cuts/
   Node  Left     Objective  IInf  Best Integer    Best Bound    ItCnt     Gap

*     0+    0                       139441.0000   118214.5000            15.22%
      0     0   133445.5000    80   139441.0000   133445.5000      649    4.30%
      0     0   135576.4653   149   139441.0000      Cuts: 29      773    2.77%
      0     0   137447.5000   148   139441.0000      Cuts: 61      845    1.43%
*     0+    0                       139167.0000   137447.5000             1.24%
Detecting symmetries...

Repeating presolve.
Tried aggregator 2 times.
MIP Presolve eliminated 390 rows and 306 columns.
MIP Presolve modified 77 coefficients.
Aggregator did 1 substitutions.
Reduced MIP has 354 rows, 262 columns, and 1123 nonzeros.
Reduced MIP has 262 binaries, 0 generals, 0 SOSs, and 0 indicators.
Presolve time = 0.00 sec. (1.56 ticks)
Probing time = 0.00 sec. (0.19 ticks)
Tried aggregator 1 time.
Detecting symmetries...
MIP Presolve eliminated 14 rows and 0 columns.
Reduced MIP has 340 rows, 262 columns, and 1095 nonzeros.
Reduced MIP has 262 binaries, 0 generals, 0 SOSs, and 0 indicators.
Presolve time = 0.00 sec. (1.23 ticks)
Represolve time = 0.01 sec. (5.30 ticks)
Probing time = 0.00 sec. (0.18 ticks)
Clique table members: 340.
MIP emphasis: balance optimality and feasibility.
MIP search method: dynamic search.
Parallel mode: deterministic, using up to 8 threads.
Root relaxation solution time = 0.00 sec. (5.30 ticks)

        Nodes                                         Cuts/
   Node  Left     Objective  IInf  Best Integer    Best Bound    ItCnt     Gap

*     0+    0                       139167.0000   138593.2500             0.41%
      0     0   139056.0000    56   139167.0000   139056.0000     1110    0.08%
      0     0        cutoff         139167.0000                   1113    0.00%
Elapsed time = 0.28 sec. (205.74 ticks, tree = 0.01 MB, solutions = 8)

Implied bound cuts applied:  75
Zero-half cuts applied:  17
Gomory fractional cuts applied:  1

Root node processing (before b&c):
  Real time             =    0.28 sec. (205.94 ticks)
Parallel b&c, 8 threads:
  Real time             =    0.00 sec. (0.00 ticks)
  Sync time (average)   =    0.00 sec.
  Wait time (average)   =    0.00 sec.
                          ------------
Total (root+branch&cut) =    0.28 sec. (205.94 ticks)
Status: Optimal
Obj: 139167

Instalacoes abertas:
Instalação 4 aberta
Instalação 9 aberta
Instalação 20 aberta
Instalação 22 aberta

Atribuições (cliente -> instalação):
Cliente 0 -> Instalação 9
Cliente 1 -> Instalação 9
Cliente 2 -> Instalação 20
Cliente 3 -> Instalação 9
Cliente 4 -> Instalação 4
Cliente 5 -> Instalação 9
Cliente 6 -> Instalação 9
Cliente 7 -> Instalação 9
Cliente 8 -> Instalação 4
Cliente 9 -> Instalação 9
Cliente 10 -> Instalação 20
Cliente 11 -> Instalação 20
Cliente 12 -> Instalação 20
Cliente 13 -> Instalação 9
Cliente 14 -> Instalação 4
Cliente 15 -> Instalação 9
Cliente 16 -> Instalação 20
Cliente 17 -> Instalação 20
Cliente 18 -> Instalação 20
Cliente 19 -> Instalação 4
Cliente 20 -> Instalação 20
Cliente 21 -> Instalação 4
Cliente 22 -> Instalação 22
Cliente 23 -> Instalação 20
Cliente 24 -> Instalação 9
Cliente 25 -> Instalação 9
Cliente 26 -> Instalação 9
Cliente 27 -> Instalação 20
Cliente 28 -> Instalação 9
Cliente 29 -> Instalação 20
Cliente 30 -> Instalação 20
Cliente 31 -> Instalação 20
Cliente 32 -> Instalação 9
Cliente 33 -> Instalação 9
Cliente 34 -> Instalação 4
Cliente 35 -> Instalação 20
Cliente 36 -> Instalação 4
Cliente 37 -> Instalação 20
Cliente 38 -> Instalação 9
Cliente 39 -> Instalação 9
Cliente 40 -> Instalação 9
Cliente 41 -> Instalação 4
Cliente 42 -> Instalação 9
Cliente 43 -> Instalação 9
Cliente 44 -> Instalação 4
Cliente 45 -> Instalação 4
Cliente 46 -> Instalação 4
Cliente 47 -> Instalação 4
Cliente 48 -> Instalação 9
Cliente 49 -> Instalação 9
